decision_x1=[0,2];
decision_x2=[0,2];
decision_x3=[0,2];
decision_x4=[0,2];
decision_x5=[0,2];
decision_x6=[0,2];
random_y1=[0,2];
random_y2=[0,2];
constraint_x3_x1=[
0,0,0.15|
0,1,0.031|
0,2,6.5|
1,0,0.41|
1,1,3.4|
1,2,4.3|
2,0,2.2|
2,1,5.3|
2,2,1.2|
];
constraint_x4_x2=[
0,0,5.6|
0,1,4.2|
0,2,6.6|
1,0,3.4|
1,1,9|
1,2,8.6|
2,0,1|
2,1,4.7|
2,2,6.5|
];
constraint_x5_x3=[
0,0,6.6|
0,1,1.6|
0,2,8.2|
1,0,1.4|
1,1,3.6|
1,2,1|
2,0,1.2|
2,1,1.1|
2,2,2.7|
];
constraint_x5_x4=[
0,0,3|
0,1,1.4|
0,2,8.8|
1,0,3.2|
1,1,9.4|
1,2,6.8|
2,0,5.3|
2,1,2.9|
2,2,4.7|
];
constraint_x6_x2=[
0,0,6.2|
0,1,6.9|
0,2,3.8|
1,0,7.6|
1,1,8.1|
1,2,7.1|
2,0,5.2|
2,1,0.68|
2,2,7.3|
];
constraint_x6_x3=[
0,0,7.8|
0,1,4.4|
0,2,8.6|
1,0,8.3|
1,1,1.2|
1,2,2|
2,0,9|
2,1,5.4|
2,2,2.7|
];
constraint_x6_x4=[
0,0,1.8|
0,1,0.3|
0,2,9.6|
1,0,7.7|
1,1,1.6|
1,2,4.7|
2,0,7.6|
2,1,5.4|
2,2,0.5|
];
constraint_x6_x5=[
0,0,2.6|
0,1,1|
0,2,8.4|
1,0,3.7|
1,1,3.4|
1,2,4.2|
2,0,2.7|
2,1,9.1|
2,2,6|
];
constraint_x1_y1=[
0,0,0.26|
0,1,9.1|
0,2,9.2|
1,0,5.9|
1,1,6.3|
1,2,1.3|
2,0,6.5|
2,1,6.1|
2,2,9.6|
];
constraint_x2_y2=[
0,0,1.6|
0,1,2.6|
0,2,1.3|
1,0,5.6|
1,1,1.9|
1,2,2.8|
2,0,6.1|
2,1,0.62|
2,2,7.1|
];
initial_distribution_y1=[0.82,0.16,0.029];
initial_distribution_y2=[0.084,0.6,0.32];
transition_y1=[
0.37,0.6,0.034|
0.69,0.14,0.17|
0.53,0.24,0.24|
];
transition_y2=[
0.71,0.24,0.052|
0.42,0.38,0.2|
0.61,0.044,0.34|
];
